0 0 2 0
0 1 0 1
2 0 2 1
1 0 1 0
3 0 1 8
1 1 2 8
2 1 3 6
4 0 2 13
5 0 1 13
2 2 5 10
1 2 4 13
3 1 0 13
3 2 2 22
4 1 1 22
5 1 3 16
0 2 1 25
3 3 3 27
5 2 5 19
0 3 3 31
4 2 4 25
3 4 4 30
2 3 0 18
5 3 0 28
1 3 5 28
1 4 0 38
1 5 3 48
5 4 4 38
0 4 5 38
0 5 4 42
4 3 5 41
2 4 1 31
3 5 5 45
2 5 4 48
5 5 2 42
4 4 0 48
4 5 3 52
